
Gurobi 9.5.0 (linux64) logging started Thu Dec  7 23:00:09 2023

Set parameter LogFile to value "/lustre1/scratch/348/vsc34888/JointResearch/05.Models/06.Benchmarking/B.Operation_cost/RTS24_mod1_ByStages_nc300/openStarNet_RTS24_mod1_ByStages_nc300.log"
Set parameter Method to value 2
Set parameter MIPFocus to value 1
Set parameter Presolve to value 2
Set parameter RINS to value 100
Set parameter MIPGap to value 0.01
Set parameter Threads to value 36
Set parameter TimeLimit to value 259200
Set parameter IterationLimit to value 760000000
Gurobi Optimizer version 9.5.0 build v9.5.0rc5 (linux64)
Thread count: 36 physical cores, 36 logical processors, using up to 36 threads
Optimize a model with 117863 rows, 79617 columns and 321515 nonzeros
Model fingerprint: 0xc91daa9d
Variable types: 79596 continuous, 21 integer (21 binary)
Coefficient statistics:
  Matrix range     [2e-03, 3e+02]
  Objective range  [1e+00, 1e+00]
  Bounds range     [3e-05, 2e+00]
  RHS range        [3e-05, 2e+00]
Presolve removed 70232 rows and 40448 columns
Presolve time: 0.47s
Presolved: 47631 rows, 39169 columns, 172089 nonzeros
Variable types: 39148 continuous, 21 integer (21 binary)
Root relaxation presolved: 47631 rows, 39169 columns, 172089 nonzeros

Root barrier log...

Ordering time: 0.01s

Barrier statistics:
 Dense cols : 21
 AA' NZ     : 3.197e+05
 Factor NZ  : 9.308e+05 (roughly 40 MB of memory)
 Factor Ops : 2.133e+07 (less than 1 second per iteration)
 Threads    : 35

                  Objective                Residual
Iter       Primal          Dual         Primal    Dual     Compl     Time
   0   1.72956062e+06 -1.48866760e+08  5.44e+00 1.05e+02  3.83e+03     1s
   1   2.57937175e+05 -3.90881122e+07  7.44e-01 1.39e-08  5.44e+02     1s
   2   9.73696067e+04 -1.84173971e+07  2.10e-01 6.30e-09  2.00e+02     1s
   3   3.89288789e+04 -1.96147299e+06  8.71e-03 2.55e-09  1.84e+01     1s
   4   1.89331109e+04 -2.80948343e+05  3.04e-04 4.92e-10  2.70e+00     1s
   5   6.41303909e+03 -6.01241502e+04  4.13e-05 7.41e-11  6.00e-01     1s
   6   1.47885629e+03 -1.16469328e+04  3.40e-06 1.19e-11  1.18e-01     1s
   7   5.91638992e+02 -3.59194067e+03  1.47e-07 3.63e-12  3.77e-02     1s
   8   3.50340656e+02 -1.01611932e+03  6.43e-08 9.95e-13  1.23e-02     1s
   9   2.48980995e+02 -3.97497116e+02  3.56e-08 1.36e-12  5.82e-03     1s
  10   1.41726775e+02 -1.30374412e+02  1.13e-08 9.09e-13  2.45e-03     1s
  11   1.06001375e+02 -2.20526325e+01  5.49e-09 9.09e-13  1.15e-03     1s
  12   9.36153382e+01  3.29157088e+01  3.72e-09 9.09e-13  5.47e-04     1s
  13   8.59447940e+01  4.27351509e+01  2.64e-09 9.09e-13  3.89e-04     1s
  14   8.50192983e+01  4.71036664e+01  2.48e-09 4.55e-13  3.42e-04     1s
  15   8.00829063e+01  4.93790864e+01  1.77e-09 9.09e-13  2.77e-04     1s
  16   7.67851579e+01  5.63520850e+01  1.30e-09 9.09e-13  1.84e-04     1s
  17   7.47205637e+01  5.95191786e+01  1.03e-09 4.55e-13  1.37e-04     1s
  18   7.25605992e+01  6.16194740e+01  7.27e-10 4.55e-13  9.86e-05     1s
  19   7.15105223e+01  6.19473235e+01  5.97e-10 4.55e-13  8.62e-05     1s
  20   7.10286578e+01  6.30224806e+01  5.33e-10 9.09e-13  7.21e-05     1s
  21   7.07288661e+01  6.42282632e+01  4.91e-10 4.55e-13  5.86e-05     1s
  22   6.98940023e+01  6.52367749e+01  3.60e-10 4.55e-13  4.20e-05     1s
  23   6.91023081e+01  6.58149032e+01  2.24e-10 4.55e-13  2.96e-05     1s
  24   6.87349602e+01  6.62217630e+01  1.65e-10 4.55e-13  2.26e-05     1s
  25   6.84245226e+01  6.65572026e+01  1.19e-10 4.55e-13  1.68e-05     1s
  26   6.82711245e+01  6.69399083e+01  9.23e-11 9.09e-13  1.20e-05     1s
  27   6.80386283e+01  6.70251472e+01  5.03e-11 4.55e-13  9.13e-06     1s
  28   6.80138124e+01  6.72948146e+01  4.66e-11 9.09e-13  6.48e-06     1s
  29   6.79403572e+01  6.74773702e+01  3.66e-11 4.55e-13  4.17e-06     1s
  30   6.78587523e+01  6.76117391e+01  4.68e-11 4.55e-13  2.23e-06     1s
  31   6.78326206e+01  6.76554968e+01  5.97e-11 4.55e-13  1.60e-06     1s
  32   6.77951205e+01  6.77118214e+01  7.28e-10 4.55e-13  7.51e-07     2s
  33   6.77876353e+01  6.77449585e+01  5.20e-10 9.09e-13  3.85e-07     2s
  34   6.77838280e+01  6.77539421e+01  3.75e-10 4.55e-13  2.69e-07     2s
  35   6.77740562e+01  6.77597116e+01  3.56e-10 4.55e-13  1.29e-07     2s
  36   6.77709240e+01  6.77645364e+01  5.10e-10 9.09e-13  5.76e-08     2s
  37   6.77693502e+01  6.77659574e+01  3.25e-10 4.55e-13  3.06e-08     2s
  38   6.77683521e+01  6.77668696e+01  3.13e-10 9.09e-13  1.34e-08     2s
  39   6.77678725e+01  6.77670252e+01  2.79e-10 9.09e-13  7.63e-09     2s
  40   6.77678182e+01  6.77675757e+01  2.81e-10 4.23e-12  2.18e-09     2s
  41   6.77676460e+01  6.77675925e+01  1.67e-09 2.98e-12  4.82e-10     2s
  42   6.77676453e+01  6.77676232e+01  1.37e-09 1.74e-11  2.00e-10     2s
  43   6.77676429e+01  6.77676429e+01  4.69e-10 9.09e-13  2.09e-13     2s

Barrier solved model in 43 iterations and 1.75 seconds (1.50 work units)
Optimal objective 6.77676429e+01


Root relaxation: objective 6.776764e+01, 7891 iterations, 1.55 seconds (1.26 work units)

    Nodes    |    Current Node    |     Objective Bounds      |     Work
 Expl Unexpl |  Obj  Depth IntInf | Incumbent    BestBd   Gap | It/Node Time

     0     0   67.76764    0   19          -   67.76764      -     -    2s
H    0     0                     112.8025225   67.76764  39.9%     -    3s
     0     0   68.88457    0   15  112.80252   68.88457  38.9%     -    5s
H    0     0                     108.9048439   68.88457  36.7%     -    6s
     0     0   68.94949    0   12  108.90484   68.94949  36.7%     -    7s
H    0     0                     104.3448075   68.94963  33.9%     -    7s
     0     0   68.94963    0   12  104.34481   68.94963  33.9%     -    7s
     0     0   68.94963    0   12  104.34481   68.94963  33.9%     -    7s
     0     0   69.16670    0   14  104.34481   69.16670  33.7%     -    9s
     0     0   69.19452    0   12  104.34481   69.19452  33.7%     -   11s
     0     0   69.20893    0   13  104.34481   69.20893  33.7%     -   11s
     0     0   69.21278    0   13  104.34481   69.21278  33.7%     -   11s
     0     0   69.21338    0   13  104.34481   69.21338  33.7%     -   11s
     0     0   69.21344    0   13  104.34481   69.21344  33.7%     -   11s
H    0     0                      98.1752075   69.26124  29.5%     -   13s
     0     0   69.26124    0   14   98.17521   69.26124  29.5%     -   13s
     0     0   69.26392    0   14   98.17521   69.26392  29.4%     -   14s
     0     0   69.28072    0   14   98.17521   69.28072  29.4%     -   14s
     0     0   69.28140    0   14   98.17521   69.28140  29.4%     -   15s
     0     0   69.28140    0   14   98.17521   69.28140  29.4%     -   15s
     0     0   69.28992    0   14   98.17521   69.28992  29.4%     -   16s
H    0     0                      94.4364573   69.29073  26.6%     -   16s
     0     0   69.29073    0   14   94.43646   69.29073  26.6%     -   16s
     0     0   69.29141    0   14   94.43646   69.29141  26.6%     -   17s
     0     0   69.29141    0   14   94.43646   69.29141  26.6%     -   17s
     0     0   69.29291    0   14   94.43646   69.29291  26.6%     -   20s
H    0     0                      85.8555451   69.29291  19.3%     -  133s
     0     2   69.29291    0   14   85.85555   69.29291  19.3%     -  134s
     1     4   69.36859    1   13   85.85555   69.29607  19.3%  1774  136s
    15    32   70.69084    4   13   85.85555   70.69084  17.7%  2740  141s
    63    84   73.08075    6   14   85.85555   70.76171  17.6%  2321  152s
    99   110   74.34884    7   13   85.85555   72.87511  15.1%  2270  181s
   171   149   78.46213    8   13   85.85555   73.09569  14.9%  2151  186s
   256   167     cutoff    9        85.85555   73.09569  14.9%  1918  200s
   355   207     cutoff   11        85.85555   73.09569  14.9%  1804  206s
   463   232   81.96979   10   11   85.85555   73.09569  14.9%  1742  211s
   589   252   83.39961   12    9   85.85555   73.09569  14.9%  1662  217s
   665   258     cutoff   12        85.85555   73.09569  14.9%  1610  220s
   826   266     cutoff   13        85.85555   73.09569  14.9%  1516  226s
   995   271   84.02521   13    8   85.85555   73.09569  14.9%  1465  334s
  1090   280   84.20089   14    7   85.85555   73.09569  14.9%  1418  337s
  1184   273     cutoff   15        85.85555   74.31673  13.4%  1408  341s
  1420   272   83.31131   10   10   85.85555   74.31673  13.4%  1344  347s
  1538   272     cutoff   11        85.85555   74.31673  13.4%  1322  351s
  1807   214   85.20412   14    7   85.85555   77.25807  10.0%  1272  357s
  1951   162     cutoff    9        85.85555   77.25807  10.0%  1256  361s
  2308    50   81.88591    8   13   85.85555   79.24761  7.70%  1174  367s
  2549    18   81.55668   10   11   85.85555   79.32332  7.61%  1120  372s
  2615    10   83.39279   10   11   85.85555   81.39031  5.20%  1120  376s

Cutting planes:
  Gomory: 1
  Implied bound: 9
  MIR: 1270
  Relax-and-lift: 159

Explored 2706 nodes (3006407 simplex iterations) in 379.01 seconds (625.32 work units)
Thread count was 36 (of 36 available processors)

Solution count 6: 85.8555 94.4365 98.1752 ... 112.803

Optimal solution found (tolerance 1.00e-02)
Best objective 8.585554512994e+01, best bound 8.585554512994e+01, gap 0.0000%

Gurobi 9.5.0 (linux64) logging started Thu Dec  7 23:07:14 2023

Set parameter LogFile to value "/lustre1/scratch/348/vsc34888/JointResearch/05.Models/06.Benchmarking/B.Operation_cost/RTS24_mod1_ByStages_nc300/openStarNet_RTS24_mod1_ByStages_nc300.log"
Set parameter Method to value 2
Set parameter MIPFocus to value 1
Set parameter Presolve to value 2
Set parameter RINS to value 100
Set parameter MIPGap to value 0.01
Set parameter Threads to value 36
Set parameter TimeLimit to value 259200
Set parameter IterationLimit to value 760000000
No parameters matching 'relax_integrality' found
Gurobi Optimizer version 9.5.0 build v9.5.0rc5 (linux64)
Thread count: 36 physical cores, 36 logical processors, using up to 36 threads
Optimize a model with 117863 rows, 79596 columns and 293606 nonzeros
Model fingerprint: 0x87280ba0
Coefficient statistics:
  Matrix range     [2e-03, 3e+02]
  Objective range  [1e+00, 1e+00]
  Bounds range     [3e-05, 2e+00]
  RHS range        [3e-05, 2e+01]
Presolve removed 98898 rows and 45097 columns
Presolve time: 0.15s
Presolved: 18965 rows, 34831 columns, 84782 nonzeros

Ordering time: 0.00s

Barrier statistics:
 AA' NZ     : 4.604e+04
 Factor NZ  : 1.635e+05 (roughly 18 MB of memory)
 Factor Ops : 2.159e+06 (less than 1 second per iteration)
 Threads    : 36

                  Objective                Residual
Iter       Primal          Dual         Primal    Dual     Compl     Time
   0   9.97943316e+06 -7.97749096e+07  5.46e+01 4.94e+01  2.51e+04     0s
   1   5.14835448e+05 -6.16567915e+07  2.44e+00 2.34e-12  2.01e+03     0s
   2   1.24697208e+05 -1.30097149e+07  4.68e-01 7.56e-12  3.29e+02     0s
   3   5.45780117e+04 -2.13362377e+06  3.59e-02 3.98e-12  4.07e+01     0s
   4   3.43704949e+04 -7.35921356e+05  5.02e-03 1.82e-12  1.33e+01     0s
   5   1.69838004e+04 -2.26967368e+05  6.87e-05 9.98e-13  4.15e+00     0s
   6   6.00084601e+03 -4.33356864e+04  5.71e-06 6.82e-13  8.39e-01     0s
   7   1.67110284e+03 -9.27201404e+03  6.15e-07 4.55e-13  1.86e-01     0s
   8   6.29240138e+02 -3.16256374e+03  1.46e-08 4.55e-13  6.45e-02     0s
   9   3.24867477e+02 -8.41551099e+02  9.51e-10 4.55e-13  1.98e-02     0s
  10   2.14677263e+02 -2.84332603e+02  3.59e-10 9.09e-13  8.49e-03     0s
  11   1.27797257e+02 -5.40517897e+01  7.85e-11 4.55e-13  3.09e-03     0s
  12   1.01272766e+02  5.17988839e+01  2.34e-11 4.55e-13  8.41e-04     0s
  13   9.24048643e+01  7.82748836e+01  9.45e-12 4.55e-13  2.40e-04     0s
  14   8.86844009e+01  8.31868777e+01  3.04e-11 4.55e-13  9.35e-05     0s
  15   8.69447945e+01  8.46684930e+01  1.34e-10 4.55e-13  3.87e-05     0s
  16   8.62421671e+01  8.54279651e+01  1.30e-10 2.27e-13  1.38e-05     0s
  17   8.59398861e+01  8.56816980e+01  6.06e-11 2.27e-13  4.39e-06     0s
  18   8.58593356e+01  8.58197580e+01  4.41e-10 4.55e-13  6.73e-07     0s
  19   8.58558806e+01  8.58505558e+01  4.59e-10 4.55e-13  9.06e-08     0s
  20   8.58555629e+01  8.58555041e+01  5.82e-10 4.55e-13  1.00e-09     0s
  21   8.58555451e+01  8.58555451e+01  1.18e-10 4.55e-13  1.50e-15     0s

Barrier solved model in 21 iterations and 0.42 seconds (0.36 work units)
Optimal objective 8.58555451e+01

Crossover log...

    4324 DPushes remaining with DInf 0.0000000e+00                 0s
       0 DPushes remaining with DInf 0.0000000e+00                 0s

    1131 PPushes remaining with PInf 0.0000000e+00                 0s
       0 PPushes remaining with PInf 0.0000000e+00                 0s

  Push phase complete: Pinf 0.0000000e+00, Dinf 1.4019593e-13      0s

Iteration    Objective       Primal Inf.    Dual Inf.      Time
    1157    8.5855545e+01   0.000000e+00   0.000000e+00      1s

Use crossover to convert LP symmetric solution to basic solution...
Crossover log...

     925 PPushes remaining with PInf 0.0000000e+00                 1s
       0 PPushes remaining with PInf 0.0000000e+00                 1s

  Push phase complete: Pinf 0.0000000e+00, Dinf 1.1638793e-13      1s

Iteration    Objective       Primal Inf.    Dual Inf.      Time
    2085    8.5855545e+01   0.000000e+00   0.000000e+00      1s

Solved in 2085 iterations and 0.64 seconds (0.49 work units)
Optimal objective  8.585554513e+01

Gurobi 10.0.0 (win64) logging started Sat Dec  9 11:49:15 2023

Set parameter LogFile to value "C:\Users\ealvarezq\Documents\GitHub\Comillas\Models\JointResearch\05. Models\06.Benchmarking\B.Operation_cost\RTS24_mod1_ByStages_nc300/openStarNet_RTS24_mod1_ByStages_nc300.log"
Set parameter Method to value 2
Set parameter MIPFocus to value 1
Set parameter Presolve to value 2
Set parameter RINS to value 100
Set parameter MIPGap to value 0.01
Set parameter Threads to value 9
Set parameter TimeLimit to value 259200
Set parameter IterationLimit to value 760000000
Gurobi Optimizer version 10.0.0 build v10.0.0rc2 (win64)

CPU model: Intel(R) Core(TM) i7-8700 CPU @ 3.20GHz, instruction set [SSE2|AVX|AVX2]
Thread count: 6 physical cores, 12 logical processors, using up to 9 threads

Optimize a model with 113604 rows, 76717 columns and 309808 nonzeros
Model fingerprint: 0x4b3b8234
Variable types: 76696 continuous, 21 integer (21 binary)
Coefficient statistics:
  Matrix range     [8e-04, 3e+02]
  Objective range  [1e+00, 1e+00]
  Bounds range     [3e-05, 3e+00]
  RHS range        [3e-05, 3e+00]
Presolve removed 67656 rows and 38901 columns
Presolve time: 0.51s
Presolved: 45948 rows, 37816 columns, 165975 nonzeros
Variable types: 37795 continuous, 21 integer (21 binary)
Root relaxation presolved: 45948 rows, 37816 columns, 165975 nonzeros

Root barrier log...

Ordering time: 0.01s

Barrier statistics:
 Dense cols : 21
 AA' NZ     : 3.082e+05
 Factor NZ  : 8.555e+05 (roughly 40 MB of memory)
 Factor Ops : 1.902e+07 (less than 1 second per iteration)
 Threads    : 8

                  Objective                Residual
Iter       Primal          Dual         Primal    Dual     Compl     Time
   0   1.34388315e+06 -1.41851391e+08  5.38e+00 1.15e+02  3.76e+03     1s
   1   2.00936113e+05 -3.70124304e+07  7.27e-01 2.07e-08  5.30e+02     1s
   2   7.66523598e+04 -1.72992301e+07  2.05e-01 7.68e-09  1.94e+02     1s
   3   3.28457840e+04 -1.85916537e+06  9.33e-03 4.20e-09  1.80e+01     1s
   4   1.57092948e+04 -2.43741871e+05  5.46e-04 6.15e-10  2.43e+00     1s
   5   5.47526897e+03 -5.17302962e+04  8.10e-05 1.41e-10  5.34e-01     1s
   6   1.20260933e+03 -1.04809931e+04  5.98e-06 2.47e-11  1.09e-01     1s
   7   5.53481933e+02 -3.29518194e+03  5.48e-07 7.10e-12  3.59e-02     1s
   8   3.19722676e+02 -1.09274862e+03  1.81e-07 2.18e-12  1.32e-02     1s
   9   2.02175892e+02 -2.35468310e+02  7.39e-08 9.87e-13  4.09e-03     1s
  10   1.36677617e+02 -7.73939804e+01  3.14e-08 6.41e-13  2.00e-03     1s
  11   1.12952051e+02 -1.72069084e+01  1.91e-08 7.82e-13  1.22e-03     1s
  12   9.98733183e+01  2.01945868e+01  1.27e-08 8.17e-13  7.44e-04     1s
  13   9.11124692e+01  2.78555087e+01  8.63e-09 8.89e-13  5.91e-04     1s
  14   8.48895670e+01  5.13781664e+01  5.81e-09 7.04e-13  3.13e-04     1s
  15   8.20672614e+01  5.40612333e+01  4.52e-09 5.82e-13  2.62e-04     1s
  16   7.95637943e+01  5.76557135e+01  3.42e-09 6.33e-13  2.05e-04     1s
  17   7.68915451e+01  6.13997819e+01  2.18e-09 9.23e-13  1.45e-04     1s
  18   7.57337442e+01  6.43092715e+01  1.67e-09 7.37e-13  1.07e-04     1s
  19   7.51526722e+01  6.66527710e+01  1.38e-09 8.66e-13  7.94e-05     1s
  20   7.43112940e+01  6.76249473e+01  1.00e-09 7.47e-13  6.24e-05     1s
  21   7.37108392e+01  6.78782934e+01  7.69e-10 7.47e-13  5.45e-05     1s
  22   7.36232356e+01  6.82662286e+01  7.16e-10 6.31e-13  5.00e-05     1s
  23   7.32480167e+01  6.98486374e+01  5.38e-10 6.98e-13  3.17e-05     1s
  24   7.30205614e+01  7.03788868e+01  4.27e-10 6.57e-13  2.47e-05     1s
  25   7.28138787e+01  7.07097739e+01  3.30e-10 5.41e-13  1.96e-05     2s
  26   7.25744575e+01  7.12741330e+01  2.06e-10 7.67e-13  1.21e-05     2s
  27   7.24323620e+01  7.17234052e+01  1.33e-10 5.91e-13  6.62e-06     2s
  28   7.23760829e+01  7.17604093e+01  1.04e-10 6.00e-13  5.75e-06     2s
  29   7.22930699e+01  7.19050893e+01  6.06e-11 4.42e-13  3.62e-06     2s
  30   7.22085824e+01  7.20630970e+01  2.51e-11 6.52e-13  1.36e-06     2s
  31   7.21977095e+01  7.21326411e+01  3.17e-11 4.97e-13  6.08e-07     2s
  32   7.21799807e+01  7.21655040e+01  7.04e-11 7.01e-13  1.35e-07     2s
  33   7.21773764e+01  7.21702982e+01  3.39e-11 7.53e-13  6.61e-08     2s
  34   7.21764117e+01  7.21731747e+01  4.46e-11 6.49e-13  3.02e-08     2s
  35   7.21757716e+01  7.21736905e+01  3.37e-11 5.05e-13  1.94e-08     2s
  36   7.21753055e+01  7.21741460e+01  5.03e-11 5.61e-13  1.08e-08     2s
  37   7.21752358e+01  7.21747750e+01  5.50e-11 3.39e-12  4.30e-09     2s
  38   7.21751418e+01  7.21751057e+01  3.41e-10 9.10e-13  3.37e-10     2s
  39   7.21751315e+01  7.21751314e+01  6.47e-11 1.08e-12  7.66e-13     2s

Barrier solved model in 39 iterations and 1.82 seconds (1.42 work units)
Optimal objective 7.21751315e+01


Root relaxation: objective 7.217513e+01, 7566 iterations, 1.60 seconds (1.16 work units)

    Nodes    |    Current Node    |     Objective Bounds      |     Work
 Expl Unexpl |  Obj  Depth IntInf | Incumbent    BestBd   Gap | It/Node Time

     0     0   72.17513    0   17          -   72.17513      -     -    3s
H    0     0                     119.5094112   72.17513  39.6%     -    4s
     0     0   73.12823    0   12  119.50941   73.12823  38.8%     -    7s
H    0     0                     106.7914783   73.14312  31.5%     -    8s
     0     0   73.14465    0   13  106.79148   73.14465  31.5%     -    8s
     0     0   73.35115    0   13  106.79148   73.35115  31.3%     -    9s
     0     0   73.35115    0   13  106.79148   73.35115  31.3%     -   10s
     0     0   73.47098    0   16  106.79148   73.47098  31.2%     -   12s
     0     0   73.50122    0   13  106.79148   73.50122  31.2%     -   13s
     0     0   73.50122    0   13  106.79148   73.50122  31.2%     -   13s
     0     0   73.59756    0   13  106.79148   73.59756  31.1%     -   15s
     0     0   73.60766    0   15  106.79148   73.60766  31.1%     -   16s
H    0     0                      98.9228253   73.60872  25.6%     -   16s
     0     0   73.60872    0   12   98.92283   73.60872  25.6%     -   16s
     0     0   73.60872    0   12   98.92283   73.60872  25.6%     -   16s
     0     0   74.29663    0   12   98.92283   74.29663  24.9%     -   19s
H    0     0                      88.8972715   74.29663  16.4%     -   77s
     0     2   74.29663    0   12   88.89727   74.29663  16.4%     -   78s
     1     4   74.29663    1   11   88.89727   74.29663  16.4%  1544   80s
    15    25   74.61435    4   14   88.89727   74.61435  16.1%  2768   86s
    33    39   76.64146    6   14   88.89727   74.65414  16.0%  2218   91s
    51    47   77.82378    7   13   88.89727   74.65414  16.0%  2140   95s
    72    59     cutoff    8        88.89727   74.65414  16.0%  1980  107s
    82    67     cutoff    9        88.89727   75.92739  14.6%  2048  111s
    94    74   84.45796    6   12   88.89727   75.92739  14.6%  2100  119s
   103    74   86.83522    7   11   88.89727   75.92739  14.6%  2140  122s
   117    81     cutoff    8        88.89727   75.92739  14.6%  2109  125s
   144    91   87.15636    7   12   88.89727   75.92739  14.6%  2058  130s
   183    87     cutoff    8        88.89727   75.92739  14.6%  1866  137s
   198    92     cutoff    8        88.89727   76.64803  13.8%  1847  159s
   215    99   83.57137    6   10   88.89727   76.64803  13.8%  1882  163s
   232   101     cutoff    8        88.89727   76.64803  13.8%  1886  167s
   256   102     cutoff    9        88.89727   76.77279  13.6%  1858  171s
   271   104     cutoff   11        88.89727   77.19837  13.2%  1890  176s
   293   121   80.97281    8   13   88.89727   78.20423  12.0%  1879  180s
   342   145   87.91738   12    9   88.89727   78.20423  12.0%  1807  188s
   376   138   88.33755   13    8   88.89727   78.90696  11.2%  1740  192s
   419   152   86.31933    6    9   88.89727   80.03218  10.0%  1663  197s
   447   151     cutoff    8        88.89727   80.06869  9.93%  1647  202s
   484   154   84.76311    8    8   88.89727   80.06869  9.93%  1632  207s
   515   152   85.01446    9   11   88.89727   80.06869  9.93%  1622  213s
   555   166   87.12746    9    8   88.89727   80.06869  9.93%  1598  218s
   593   177   88.47455   10   10   88.89727   80.06869  9.93%  1568  223s
   634   185     cutoff   11        88.89727   80.97861  8.91%  1536  228s
   681   190   84.36067    8   13   88.89727   80.97861  8.91%  1494  234s
   726   189     cutoff   12        88.89727   80.97861  8.91%  1484  241s
   767   206   84.94752   10   11   88.89727   80.97861  8.91%  1478  248s
   812   202   88.73832   13    8   88.89727   80.97861  8.91%  1465  255s
   846   206     cutoff   14        88.89727   80.97861  8.91%  1446  261s
   888   231     cutoff   14        88.89727   81.79868  7.99%  1430  268s
   946   244   85.65309    9   12   88.89727   82.50679  7.19%  1403  275s
   999   241   85.30584   10   11   88.89727   82.50679  7.19%  1397  428s
H 1025   241                      88.8972715   82.50679  7.19%  1393  428s
  1026   255   87.21416   10   11   88.89727   82.50679  7.19%  1396  436s
  1106   266     cutoff   12        88.89727   83.31496  6.28%  1355  446s
  1151   260   88.15575    9   12   88.89727   83.90625  5.61%  1339  455s
  1243   260   88.36471   13    6   88.89727   84.34959  5.12%  1301  463s
  1350   262     cutoff   20        88.89727   84.52090  4.92%  1256  474s
  1443   244   88.34270   13    8   88.89727   84.78841  4.62%  1238  483s
  1565   255     cutoff   10        88.89727   85.02144  4.36%  1200  493s
  1654   259     cutoff   13        88.89727   85.24175  4.11%  1185  502s
  1783   246     cutoff   16        88.89727   85.57630  3.74%  1151  615s
  1918   220   88.07517    9   10   88.89727   85.94310  3.32%  1118  627s
  2093   220   88.51551   15    5   88.89727   86.05733  3.19%  1073  652s
  2111   166     cutoff   16        88.89727   86.16145  3.08%  1070  664s
  2294    81     cutoff   10        88.89727   86.81376  2.34%  1029  691s
  2439    38     cutoff   14        88.89727   87.18237  1.93%   997  699s
  2494    17     cutoff   19        88.89727   87.43672  1.64%   981  720s

Cutting planes:
  Gomory: 1
  Implied bound: 323
  MIR: 1137
  Relax-and-lift: 201

Explored 2562 nodes (2508793 simplex iterations) in 721.74 seconds (1235.15 work units)
Thread count was 9 (of 12 available processors)

Solution count 4: 88.8973 98.9228 106.791 119.509 

Optimal solution found (tolerance 1.00e-02)
Best objective 8.889727147363e+01, best bound 8.889727147363e+01, gap 0.0000%

Gurobi 10.0.0 (win64) logging started Sat Dec  9 12:01:23 2023

Set parameter LogFile to value "C:\Users\ealvarezq\Documents\GitHub\Comillas\Models\JointResearch\05. Models\06.Benchmarking\B.Operation_cost\RTS24_mod1_ByStages_nc300/openStarNet_RTS24_mod1_ByStages_nc300.log"
Set parameter Method to value 2
Set parameter MIPFocus to value 1
Set parameter Presolve to value 2
Set parameter RINS to value 100
Set parameter MIPGap to value 0.01
Set parameter Threads to value 9
Set parameter TimeLimit to value 259200
Set parameter IterationLimit to value 760000000
No parameters matching 'relax_integrality' found
Gurobi Optimizer version 10.0.0 build v10.0.0rc2 (win64)

CPU model: Intel(R) Core(TM) i7-8700 CPU @ 3.20GHz, instruction set [SSE2|AVX|AVX2]
Thread count: 6 physical cores, 12 logical processors, using up to 9 threads

Optimize a model with 113604 rows, 76696 columns and 282907 nonzeros
Model fingerprint: 0x51cdd112
Coefficient statistics:
  Matrix range     [8e-04, 3e+02]
  Objective range  [1e+00, 1e+00]
  Bounds range     [3e-05, 3e+00]
  RHS range        [3e-05, 2e+01]
Presolve removed 95531 rows and 44274 columns
Presolve time: 0.14s
Presolved: 18073 rows, 32956 columns, 82675 nonzeros

Ordering time: 0.00s

Barrier statistics:
 AA' NZ     : 4.865e+04
 Factor NZ  : 1.593e+05 (roughly 18 MB of memory)
 Factor Ops : 2.136e+06 (less than 1 second per iteration)
 Threads    : 9

                  Objective                Residual
Iter       Primal          Dual         Primal    Dual     Compl     Time
   0   1.30865943e+07 -1.26284951e+08  4.47e+01 1.67e+02  3.23e+04     0s
   1   7.07554994e+05 -8.88064370e+07  2.23e+00 4.09e-12  2.87e+03     0s
   2   1.21255572e+05 -1.84096209e+07  3.42e-01 7.28e-12  4.39e+02     0s
   3   5.59153432e+04 -4.79301426e+06  8.02e-02 4.37e-12  9.96e+01     0s
   4   3.47111518e+04 -5.56242118e+05  6.98e-03 4.21e-12  1.06e+01     0s
   5   1.39575846e+04 -3.04874452e+05  4.92e-04 2.05e-12  5.52e+00     0s
   6   5.46482535e+03 -3.98245853e+04  3.11e-05 2.39e-12  7.81e-01     0s
   7   1.10336614e+03 -5.76962663e+03  1.63e-06 1.12e-12  1.19e-01     0s
   8   4.66263900e+02 -1.56875967e+03  3.16e-08 1.26e-12  3.51e-02     0s
   9   2.31891724e+02 -5.47843664e+02  7.34e-09 1.18e-12  1.35e-02     0s
  10   1.46154560e+02 -1.80843952e+01  2.16e-09 1.79e-12  2.83e-03     0s
  11   1.04267012e+02  4.79400453e+01  4.45e-10 1.05e-12  9.72e-04     0s
  12   9.60693806e+01  7.38754088e+01  1.95e-10 1.17e-12  3.83e-04     0s
  13   9.15523611e+01  8.34535698e+01  6.66e-11 1.14e-12  1.40e-04     0s
  14   8.99537284e+01  8.69893553e+01  3.23e-11 7.30e-13  5.11e-05     0s
  15   8.91587272e+01  8.82673854e+01  7.08e-11 1.05e-12  1.54e-05     0s
  16   8.89216884e+01  8.88019639e+01  7.40e-11 7.96e-13  2.07e-06     0s
  17   8.88985431e+01  8.88855343e+01  3.19e-10 1.05e-12  2.24e-07     0s
  18   8.88973004e+01  8.88970797e+01  3.93e-10 7.15e-13  3.81e-09     0s
  19   8.88972715e+01  8.88972713e+01  2.24e-10 8.79e-13  3.82e-12     0s
  20   8.88972715e+01  8.88972715e+01  6.77e-12 7.93e-13  3.82e-15     0s

Barrier solved model in 20 iterations and 0.38 seconds (0.36 work units)
Optimal objective 8.88972715e+01

Crossover log...

    4163 DPushes remaining with DInf 0.0000000e+00                 0s
       0 DPushes remaining with DInf 0.0000000e+00                 0s

    1160 PPushes remaining with PInf 0.0000000e+00                 0s
       0 PPushes remaining with PInf 0.0000000e+00                 0s

  Push phase complete: Pinf 0.0000000e+00, Dinf 3.2015141e-13      0s

Iteration    Objective       Primal Inf.    Dual Inf.      Time
    1251    8.8897271e+01   0.000000e+00   0.000000e+00      0s

Use crossover to convert LP symmetric solution to basic solution...
Crossover log...

       0 DPushes remaining with DInf 0.0000000e+00                 0s

     886 PPushes remaining with PInf 0.0000000e+00                 0s
       0 PPushes remaining with PInf 0.0000000e+00                 1s

  Push phase complete: Pinf 0.0000000e+00, Dinf 2.3352402e-13      1s

Iteration    Objective       Primal Inf.    Dual Inf.      Time
    2302    8.8897271e+01   0.000000e+00   0.000000e+00      1s

Solved in 2302 iterations and 0.59 seconds (0.50 work units)
Optimal objective  8.889727149e+01
